outputs/case_383.model.txt
internal_control_system_established = True
internal_control_system_executed = True
internal_handling_system_established = True
internal_handling_system_executed = True
internal_control_executed = True
internal_handling_established = True
underwriting_training_completed = False
underwriting_training_compliance = False
solicitation_underwriting_claims_systems_executed = False
solicitation_underwriting_claims_compliance = False
solicitation_underwriting_claims_personnel_compliance = True
penalty = False
personnel_performance_compliant = True
underwriting_system_executed = False
underwriting_execution_compliance = False
internal_handling_executed = True
internal_control_established = True
internal_handling_ok = True
internal_control_ok = True
underwriting_system_established_and_compliant = False
underwriting_system_compliance = False